30
5
3005101
0
0
52 4 91 17 16 
1
0
34 10 26 5 12 
2
0
31 75 50 28 11 
3
0
97 66 21 32 10 
4
0
36 41 20 2 96 
5
0
47 1 83 4 57 
6
0
82 79 13 34 12 
7
0
4 90 51 46 20 
8
0
31 44 30 60 48 
9
0
56 60 42 77 38 
10
0
48 80 39 71 53 
11
0
66 84 95 95 21 
12
0
79 49 79 19 4 
13
0
68 37 71 76 19 
14
0
61 12 42 6 16 
15
0
58 42 61 44 80 
16
0
68 13 80 26 28 
17
0
82 28 43 87 58 
18
0
75 99 27 75 11 
19
0
67 35 45 11 26 
20
0
52 23 60 57 97 
21
0
37 21 61 99 2 
22
0
30 19 5 48 32 
23
0
64 82 71 10 41 
24
0
96 55 33 23 13 
25
0
20 95 55 9 20 
26
0
78 87 3 54 73 
27
0
53 80 32 79 59 
28
0
9 18 87 64 32 
29
0
56 92 25 10 56 
